n = 12;
pref = [| 7,9,12,8,10,11,0,0,0,0,0
        | 10,12,7,8,11,9,0,0,0,0,0
        | 7,10,11,9,12,8,0,0,0,0,0
        | 12,11,9,10,8,7,0,0,0,0,0
        | 8,9,7,10,11,12,0,0,0,0,0
        | 9,7,8,12,11,10,0,0,0,0,0
        | 1,5,6,3,2,4,0,0,0,0,0
        | 2,4,6,1,3,5,0,0,0,0,0
        | 4,3,6,2,5,1,0,0,0,0,0
        | 1,3,5,4,2,6,0,0,0,0,0
        | 3,2,6,1,4,5,0,0,0,0,0
        | 5,1,3,6,4,2,0,0,0,0,0 |];